c Generated map
c Size: 10 * 10, weights in range: 1 to 10, walls: False, with ratio 0.0
c dim 1 of 7
c
p sp 100 180
c graph contains 100 nodes and 180 arcs
c
a 1 11 7
a 11 1 7
a 1 2 1
a 2 1 1
a 2 12 5
a 12 2 5
a 2 3 3
a 3 2 3
a 3 13 8
a 13 3 8
a 3 4 8
a 4 3 8
a 4 14 7
a 14 4 7
a 4 5 8
a 5 4 8
a 5 15 8
a 15 5 8
a 5 6 9
a 6 5 9
a 6 16 10
a 16 6 10
a 6 7 10
a 7 6 10
a 7 17 7
a 17 7 7
a 7 8 7
a 8 7 7
a 8 18 7
a 18 8 7
a 8 9 5
a 9 8 5
a 9 19 7
a 19 9 7
a 9 10 3
a 10 9 3
a 10 20 6
a 20 10 6
a 11 21 3
a 21 11 3
a 11 12 2
a 12 11 2
a 12 22 10
a 22 12 10
a 12 13 10
a 13 12 10
a 13 23 3
a 23 13 3
a 13 14 4
a 14 13 4
a 14 24 3
a 24 14 3
a 14 15 10
a 15 14 10
a 15 25 9
a 25 15 9
a 15 16 6
a 16 15 6
a 16 26 1
a 26 16 1
a 16 17 1
a 17 16 1
a 17 27 3
a 27 17 3
a 17 18 1
a 18 17 1
a 18 28 3
a 28 18 3
a 18 19 7
a 19 18 7
a 19 29 10
a 29 19 10
a 19 20 5
a 20 19 5
a 20 30 10
a 30 20 10
a 21 31 10
a 31 21 10
a 21 22 5
a 22 21 5
a 22 32 3
a 32 22 3
a 22 23 4
a 23 22 4
a 23 33 9
a 33 23 9
a 23 24 9
a 24 23 9
a 24 34 6
a 34 24 6
a 24 25 9
a 25 24 9
a 25 35 3
a 35 25 3
a 25 26 4
a 26 25 4
a 26 36 8
a 36 26 8
a 26 27 8
a 27 26 8
a 27 37 2
a 37 27 2
a 27 28 9
a 28 27 9
a 28 38 7
a 38 28 7
a 28 29 8
a 29 28 8
a 29 39 5
a 39 29 5
a 29 30 10
a 30 29 10
a 30 40 3
a 40 30 3
a 31 41 7
a 41 31 7
a 31 32 1
a 32 31 1
a 32 42 9
a 42 32 9
a 32 33 1
a 33 32 1
a 33 43 4
a 43 33 4
a 33 34 1
a 34 33 1
a 34 44 1
a 44 34 1
a 34 35 8
a 35 34 8
a 35 45 1
a 45 35 1
a 35 36 1
a 36 35 1
a 36 46 1
a 46 36 1
a 36 37 1
a 37 36 1
a 37 47 2
a 47 37 2
a 37 38 3
a 38 37 3
a 38 48 5
a 48 38 5
a 38 39 6
a 39 38 6
a 39 49 3
a 49 39 3
a 39 40 2
a 40 39 2
a 40 50 5
a 50 40 5
a 41 51 6
a 51 41 6
a 41 42 6
a 42 41 6
a 42 52 6
a 52 42 6
a 42 43 4
a 43 42 4
a 43 53 8
a 53 43 8
a 43 44 8
a 44 43 8
a 44 54 1
a 54 44 1
a 44 45 4
a 45 44 4
a 45 55 10
a 55 45 10
a 45 46 10
a 46 45 10
a 46 56 4
a 56 46 4
a 46 47 2
a 47 46 2
a 47 57 9
a 57 47 9
a 47 48 9
a 48 47 9
a 48 58 2
a 58 48 2
a 48 49 9
a 49 48 9
a 49 59 1
a 59 49 1
a 49 50 9
a 50 49 9
a 50 60 1
a 60 50 1
a 51 61 5
a 61 51 5
a 51 52 10
a 52 51 10
a 52 62 10
a 62 52 10
a 52 53 10
a 53 52 10
a 53 63 7
a 63 53 7
a 53 54 1
a 54 53 1
a 54 64 10
a 64 54 10
a 54 55 9
a 55 54 9
a 55 65 2
a 65 55 2
a 55 56 10
a 56 55 10
a 56 66 8
a 66 56 8
a 56 57 5
a 57 56 5
a 57 67 7
a 67 57 7
a 57 58 10
a 58 57 10
a 58 68 6
a 68 58 6
a 58 59 8
a 59 58 8
a 59 69 9
a 69 59 9
a 59 60 3
a 60 59 3
a 60 70 5
a 70 60 5
a 61 71 1
a 71 61 1
a 61 62 6
a 62 61 6
a 62 72 10
a 72 62 10
a 62 63 1
a 63 62 1
a 63 73 10
a 73 63 10
a 63 64 6
a 64 63 6
a 64 74 3
a 74 64 3
a 64 65 10
a 65 64 10
a 65 75 5
a 75 65 5
a 65 66 9
a 66 65 9
a 66 76 6
a 76 66 6
a 66 67 10
a 67 66 10
a 67 77 2
a 77 67 2
a 67 68 3
a 68 67 3
a 68 78 4
a 78 68 4
a 68 69 1
a 69 68 1
a 69 79 2
a 79 69 2
a 69 70 3
a 70 69 3
a 70 80 8
a 80 70 8
a 71 81 8
a 81 71 8
a 71 72 10
a 72 71 10
a 72 82 2
a 82 72 2
a 72 73 2
a 73 72 2
a 73 83 1
a 83 73 1
a 73 74 5
a 74 73 5
a 74 84 2
a 84 74 2
a 74 75 3
a 75 74 3
a 75 85 6
a 85 75 6
a 75 76 3
a 76 75 3
a 76 86 2
a 86 76 2
a 76 77 8
a 77 76 8
a 77 87 6
a 87 77 6
a 77 78 5
a 78 77 5
a 78 88 3
a 88 78 3
a 78 79 5
a 79 78 5
a 79 89 1
a 89 79 1
a 79 80 3
a 80 79 3
a 80 90 5
a 90 80 5
a 81 91 1
a 91 81 1
a 81 82 8
a 82 81 8
a 82 92 8
a 92 82 8
a 82 83 3
a 83 82 3
a 83 93 9
a 93 83 9
a 83 84 10
a 84 83 10
a 84 94 5
a 94 84 5
a 84 85 10
a 85 84 10
a 85 95 7
a 95 85 7
a 85 86 8
a 86 85 8
a 86 96 7
a 96 86 7
a 86 87 4
a 87 86 4
a 87 97 1
a 97 87 1
a 87 88 6
a 88 87 6
a 88 98 7
a 98 88 7
a 88 89 3
a 89 88 3
a 89 99 4
a 99 89 4
a 89 90 9
a 90 89 9
a 90 100 3
a 100 90 3
a 91 92 10
a 92 91 10
a 92 93 9
a 93 92 9
a 93 94 2
a 94 93 2
a 94 95 6
a 95 94 6
a 95 96 7
a 96 95 7
a 96 97 7
a 97 96 7
a 97 98 2
a 98 97 2
a 98 99 10
a 99 98 10
a 99 100 7
a 100 99 7
